benchmark_str_length/p1_10_7-3.dzn
Alphabet = {A,C,G,T};
ns = 10;
nc = 7;
sl = 10;
neighbours = [| I(C),I(A),I(A),I(C),I(A),I(A),I(C) | I(A),I(A),I(A),I(A),I(A),I(A),I(A) | I(C),I(A),I(C),I(A),I(A),I(C),I(G) | I(C),I(A),I(C),I(A),I(A),I(A),I(C) | I(C),I(A),I(A),I(A),I(C),I(C),I(A) | I(C),I(C),I(A),I(A),I(C),I(A),I(C) | I(A),I(A),I(A),I(A),I(C),I(A),I(C) | I(A),I(A),I(C),I(C),I(A),I(A),I(A) | I(C),I(A),I(A),I(A),I(C),I(A),I(A) | I(A),I(C),I(C),I(A),I(A),I(C),I(A) |];
