benchmark_str_length/p1_10_7-3.txt
{
	"num_strings": 10,
	"alphabet": "ACGT",
	"strings": [
		"CAACAAC",
		"AAAAAAA",
		"CACAACG",
		"CACAAAC",
		"CAAACCA",
		"CCAACAC",
		"AAAACAC",
		"AACCAAA",
		"CAAACAA",
		"ACCAACA"
	],
	"str_length":[7,7,7,7,7,7,7,7,7,7]
}